p cnf 386 460
-16 -5 -6 21 22 0
-16 -5 -6 21 -22 0
-16 -5 -6 -21 23 0
-16 -5 -6 -21 -23 0
-4 15 19 24 25 0
-4 15 19 24 -25 0
-4 15 19 -24 26 0
-4 15 19 -24 -26 0
-2 16 -5 27 28 0
-2 16 -5 27 -28 0
-2 16 -5 -27 29 0
-2 16 -5 -27 -29 0
10 -13 3 30 31 0
10 -13 3 30 -31 0
10 -13 3 -30 32 0
10 -13 3 -30 -32 0
-13 -10 15 33 34 0
-13 -10 15 33 -34 0
-13 -10 15 -33 35 0
-13 -10 15 -33 -35 0
3 11 14 36 37 0
3 11 14 36 -37 0
3 11 14 -36 38 0
3 11 14 -36 -38 0
6 11 -2 39 40 0
6 11 -2 39 -40 0
6 11 -2 -39 41 0
6 11 -2 -39 -41 0
-7 -4 11 42 43 0
-7 -4 11 42 -43 0
-7 -4 11 -42 44 0
-7 -4 11 -42 -44 0
-8 6 -12 45 46 0
-8 6 -12 45 -46 0
-8 6 -12 -45 47 0
-8 6 -12 -45 -47 0
9 13 -8 48 49 0
9 13 -8 48 -49 0
9 13 -8 -48 50 0
9 13 -8 -48 -50 0
-7 19 -11 51 52 0
-7 19 -11 51 -52 0
-7 19 -11 -51 53 0
-7 19 -11 -51 -53 0
20 -15 -19 54 55 0
20 -15 -19 54 -55 0
20 -15 -19 -54 56 0
20 -15 -19 -54 -56 0
11 -1 17 57 58 0
11 -1 17 57 -58 0
11 -1 17 -57 59 0
11 -1 17 -57 -59 0
10 6 -16 60 61 0
10 6 -16 60 -61 0
10 6 -16 -60 62 0
10 6 -16 -60 -62 0
14 -10 -12 63 64 0
14 -10 -12 63 -64 0
14 -10 -12 -63 65 0
14 -10 -12 -63 -65 0
19 -2 18 66 67 0
19 -2 18 66 -67 0
19 -2 18 -66 68 0
19 -2 18 -66 -68 0
6 -16 -17 69 70 0
6 -16 -17 69 -70 0
6 -16 -17 -69 71 0
6 -16 -17 -69 -71 0
-15 -11 -14 72 73 0
-15 -11 -14 72 -73 0
-15 -11 -14 -72 74 0
-15 -11 -14 -72 -74 0
-2 1 -18 75 76 0
-2 1 -18 75 -76 0
-2 1 -18 -75 77 0
-2 1 -18 -75 -77 0
17 -16 9 78 79 0
17 -16 9 78 -79 0
17 -16 9 -78 80 0
17 -16 9 -78 -80 0
9 16 6 81 82 0
9 16 6 81 -82 0
9 16 6 -81 83 0
9 16 6 -81 -83 0
9 -10 -17 84 85 0
9 -10 -17 84 -85 0
9 -10 -17 -84 86 0
9 -10 -17 -84 -86 0
-19 9 -7 87 88 0
-19 9 -7 87 -88 0
-19 9 -7 -87 89 0
-19 9 -7 -87 -89 0
5 -3 20 90 91 0
5 -3 20 90 -91 0
5 -3 20 -90 92 0
5 -3 20 -90 -92 0
-2 16 -17 93 94 0
-2 16 -17 93 -94 0
-2 16 -17 -93 95 0
-2 16 -17 -93 -95 0
-14 -13 -9 96 97 0
-14 -13 -9 96 -97 0
-14 -13 -9 -96 98 0
-14 -13 -9 -96 -98 0
-20 -8 -3 99 100 0
-20 -8 -3 99 -100 0
-20 -8 -3 -99 101 0
-20 -8 -3 -99 -101 0
-14 12 6 102 103 0
-14 12 6 102 -103 0
-14 12 6 -102 104 0
-14 12 6 -102 -104 0
-19 -9 8 105 106 0
-19 -9 8 105 -106 0
-19 -9 8 -105 107 0
-19 -9 8 -105 -107 0
-19 12 4 108 109 0
-19 12 4 108 -109 0
-19 12 4 -108 110 0
-19 12 4 -108 -110 0
-9 -16 -1 111 112 0
-9 -16 -1 111 -112 0
-9 -16 -1 -111 113 0
-9 -16 -1 -111 -113 0
-11 -14 -7 114 115 0
-11 -14 -7 114 -115 0
-11 -14 -7 -114 116 0
-11 -14 -7 -114 -116 0
-10 4 -11 117 118 0
-10 4 -11 117 -118 0
-10 4 -11 -117 119 0
-10 4 -11 -117 -119 0
1 -2 -3 120 121 0
1 -2 -3 120 -121 0
1 -2 -3 -120 122 0
1 -2 -3 -120 -122 0
-16 -18 4 123 124 0
-16 -18 4 123 -124 0
-16 -18 4 -123 125 0
-16 -18 4 -123 -125 0
-8 1 18 126 127 0
-8 1 18 126 -127 0
-8 1 18 -126 128 0
-8 1 18 -126 -128 0
-9 -14 1 129 130 0
-9 -14 1 129 -130 0
-9 -14 1 -129 131 0
-9 -14 1 -129 -131 0
2 -3 5 132 133 0
2 -3 5 132 -133 0
2 -3 5 -132 134 0
2 -3 5 -132 -134 0
7 -19 14 135 136 0
7 -19 14 135 -136 0
7 -19 14 -135 137 0
7 -19 14 -135 -137 0
-3 16 -9 138 139 0
-3 16 -9 138 -139 0
-3 16 -9 -138 140 0
-3 16 -9 -138 -140 0
-16 -2 -5 141 142 0
-16 -2 -5 141 -142 0
-16 -2 -5 -141 143 0
-16 -2 -5 -141 -143 0
2 5 -6 144 145 0
2 5 -6 144 -145 0
2 5 -6 -144 146 0
2 5 -6 -144 -146 0
-12 -6 -2 147 148 0
-12 -6 -2 147 -148 0
-12 -6 -2 -147 149 0
-12 -6 -2 -147 -149 0
2 17 15 150 151 0
2 17 15 150 -151 0
2 17 15 -150 152 0
2 17 15 -150 -152 0
6 4 14 153 154 0
6 4 14 153 -154 0
6 4 14 -153 155 0
6 4 14 -153 -155 0
16 5 14 156 157 0
16 5 14 156 -157 0
16 5 14 -156 158 0
16 5 14 -156 -158 0
-10 6 11 159 160 0
-10 6 11 159 -160 0
-10 6 11 -159 161 0
-10 6 11 -159 -161 0
-4 14 11 162 163 0
-4 14 11 162 -163 0
-4 14 11 -162 164 0
-4 14 11 -162 -164 0
-1 2 -5 165 166 0
-1 2 -5 165 -166 0
-1 2 -5 -165 167 0
-1 2 -5 -165 -167 0
-20 9 -17 168 169 0
-20 9 -17 168 -169 0
-20 9 -17 -168 170 0
-20 9 -17 -168 -170 0
-2 5 16 171 172 0
-2 5 16 171 -172 0
-2 5 16 -171 173 0
-2 5 16 -171 -173 0
-3 -11 -15 174 175 0
-3 -11 -15 174 -175 0
-3 -11 -15 -174 176 0
-3 -11 -15 -174 -176 0
-14 -10 -18 177 178 0
-14 -10 -18 177 -178 0
-14 -10 -18 -177 179 0
-14 -10 -18 -177 -179 0
19 -3 -13 180 181 0
19 -3 -13 180 -181 0
19 -3 -13 -180 182 0
19 -3 -13 -180 -182 0
-11 -12 5 183 184 0
-11 -12 5 183 -184 0
-11 -12 5 -183 185 0
-11 -12 5 -183 -185 0
-4 16 2 186 187 0
-4 16 2 186 -187 0
-4 16 2 -186 188 0
-4 16 2 -186 -188 0
-20 -12 -13 189 190 0
-20 -12 -13 189 -190 0
-20 -12 -13 -189 191 0
-20 -12 -13 -189 -191 0
12 5 -2 192 193 0
12 5 -2 192 -193 0
12 5 -2 -192 194 0
12 5 -2 -192 -194 0
-6 20 -2 195 196 0
-6 20 -2 195 -196 0
-6 20 -2 -195 197 0
-6 20 -2 -195 -197 0
-11 -12 9 198 199 0
-11 -12 9 198 -199 0
-11 -12 9 -198 200 0
-11 -12 9 -198 -200 0
2 -15 -16 201 202 0
2 -15 -16 201 -202 0
2 -15 -16 -201 203 0
2 -15 -16 -201 -203 0
-6 11 9 204 205 0
-6 11 9 204 -205 0
-6 11 9 -204 206 0
-6 11 9 -204 -206 0
-10 15 5 207 208 0
-10 15 5 207 -208 0
-10 15 5 -207 209 0
-10 15 5 -207 -209 0
-10 9 6 210 211 0
-10 9 6 210 -211 0
-10 9 6 -210 212 0
-10 9 6 -210 -212 0
-8 19 -17 213 214 0
-8 19 -17 213 -214 0
-8 19 -17 -213 215 0
-8 19 -17 -213 -215 0
-16 -5 13 216 217 0
-16 -5 13 216 -217 0
-16 -5 13 -216 218 0
-16 -5 13 -216 -218 0
5 6 -19 219 220 0
5 6 -19 219 -220 0
5 6 -19 -219 221 0
5 6 -19 -219 -221 0
12 5 3 222 223 0
12 5 3 222 -223 0
12 5 3 -222 224 0
12 5 3 -222 -224 0
12 16 -13 225 226 0
12 16 -13 225 -226 0
12 16 -13 -225 227 0
12 16 -13 -225 -227 0
10 -2 18 228 229 0
10 -2 18 228 -229 0
10 -2 18 -228 230 0
10 -2 18 -228 -230 0
3 11 15 231 232 0
3 11 15 231 -232 0
3 11 15 -231 233 0
3 11 15 -231 -233 0
-14 12 -2 234 235 0
-14 12 -2 234 -235 0
-14 12 -2 -234 236 0
-14 12 -2 -234 -236 0
7 -5 -3 237 238 0
7 -5 -3 237 -238 0
7 -5 -3 -237 239 0
7 -5 -3 -237 -239 0
1 -8 3 240 241 0
1 -8 3 240 -241 0
1 -8 3 -240 242 0
1 -8 3 -240 -242 0
13 20 19 243 244 0
13 20 19 243 -244 0
13 20 19 -243 245 0
13 20 19 -243 -245 0
18 17 -16 246 247 0
18 17 -16 246 -247 0
18 17 -16 -246 248 0
18 17 -16 -246 -248 0
-1 14 16 249 250 0
-1 14 16 249 -250 0
-1 14 16 -249 251 0
-1 14 16 -249 -251 0
-20 -3 -12 252 253 0
-20 -3 -12 252 -253 0
-20 -3 -12 -252 254 0
-20 -3 -12 -252 -254 0
19 -17 14 255 256 0
19 -17 14 255 -256 0
19 -17 14 -255 257 0
19 -17 14 -255 -257 0
3 18 5 258 259 0
3 18 5 258 -259 0
3 18 5 -258 260 0
3 18 5 -258 -260 0
-8 1 -20 261 262 0
-8 1 -20 261 -262 0
-8 1 -20 -261 263 0
-8 1 -20 -261 -263 0
-15 -17 -20 264 265 0
-15 -17 -20 264 -265 0
-15 -17 -20 -264 266 0
-15 -17 -20 -264 -266 0
13 11 -3 267 268 0
13 11 -3 267 -268 0
13 11 -3 -267 269 0
13 11 -3 -267 -269 0
16 -1 12 270 271 0
16 -1 12 270 -271 0
16 -1 12 -270 272 0
16 -1 12 -270 -272 0
-16 13 -8 273 274 0
-16 13 -8 273 -274 0
-16 13 -8 -273 275 0
-16 13 -8 -273 -275 0
5 10 -11 276 277 0
5 10 -11 276 -277 0
5 10 -11 -276 278 0
5 10 -11 -276 -278 0
3 18 11 279 280 0
3 18 11 279 -280 0
3 18 11 -279 281 0
3 18 11 -279 -281 0
2 1 -13 282 283 0
2 1 -13 282 -283 0
2 1 -13 -282 284 0
2 1 -13 -282 -284 0
20 15 11 285 286 0
20 15 11 285 -286 0
20 15 11 -285 287 0
20 15 11 -285 -287 0
5 19 -8 288 289 0
5 19 -8 288 -289 0
5 19 -8 -288 290 0
5 19 -8 -288 -290 0
-8 10 -12 291 292 0
-8 10 -12 291 -292 0
-8 10 -12 -291 293 0
-8 10 -12 -291 -293 0
294 295 297 301 309 0
294 295 297 301 -309 0
294 295 297 -301 310 0
294 295 297 -301 -310 0
294 295 -297 302 311 0
294 295 -297 302 -311 0
294 295 -297 -302 312 0
294 295 -297 -302 -312 0
294 -295 298 303 313 0
294 -295 298 303 -313 0
294 -295 298 -303 314 0
294 -295 298 -303 -314 0
294 -295 -298 304 315 0
294 -295 -298 304 -315 0
294 -295 -298 -304 316 0
294 -295 -298 -304 -316 0
-294 296 299 305 317 0
-294 296 299 305 -317 0
-294 296 299 -305 318 0
-294 296 299 -305 -318 0
-294 296 -299 306 319 0
-294 296 -299 306 -319 0
-294 296 -299 -306 320 0
-294 296 -299 -306 -320 0
-294 -296 300 307 321 0
-294 -296 300 307 -321 0
-294 -296 300 -307 322 0
-294 -296 300 -307 -322 0
-294 -296 -300 308 323 0
-294 -296 -300 308 -323 0
-294 -296 -300 -308 324 0
-294 -296 -300 -308 -324 0
325 326 328 332 340 0
325 326 328 332 -340 0
325 326 328 -332 341 0
325 326 328 -332 -341 0
325 326 -328 333 342 0
325 326 -328 333 -342 0
325 326 -328 -333 343 0
325 326 -328 -333 -343 0
325 -326 329 334 344 0
325 -326 329 334 -344 0
325 -326 329 -334 345 0
325 -326 329 -334 -345 0
325 -326 -329 335 346 0
325 -326 -329 335 -346 0
325 -326 -329 -335 347 0
325 -326 -329 -335 -347 0
-325 327 330 336 348 0
-325 327 330 336 -348 0
-325 327 330 -336 349 0
-325 327 330 -336 -349 0
-325 327 -330 337 350 0
-325 327 -330 337 -350 0
-325 327 -330 -337 351 0
-325 327 -330 -337 -351 0
-325 -327 331 338 352 0
-325 -327 331 338 -352 0
-325 -327 331 -338 353 0
-325 -327 331 -338 -353 0
-325 -327 -331 339 354 0
-325 -327 -331 339 -354 0
-325 -327 -331 -339 355 0
-325 -327 -331 -339 -355 0
356 357 359 363 371 0
356 357 359 363 -371 0
356 357 359 -363 372 0
356 357 359 -363 -372 0
356 357 -359 364 373 0
356 357 -359 364 -373 0
356 357 -359 -364 374 0
356 357 -359 -364 -374 0
356 -357 360 365 375 0
356 -357 360 365 -375 0
356 -357 360 -365 376 0
356 -357 360 -365 -376 0
356 -357 -360 366 377 0
356 -357 -360 366 -377 0
356 -357 -360 -366 378 0
356 -357 -360 -366 -378 0
-356 358 361 367 379 0
-356 358 361 367 -379 0
-356 358 361 -367 380 0
-356 358 361 -367 -380 0
-356 358 -361 368 381 0
-356 358 -361 368 -381 0
-356 358 -361 -368 382 0
-356 358 -361 -368 -382 0
-356 -358 362 369 383 0
-356 -358 362 369 -383 0
-356 -358 362 -369 384 0
-356 -358 362 -369 -384 0
-356 -358 -362 370 385 0
-356 -358 -362 370 -385 0
-356 -358 -362 -370 386 0
-356 -358 -362 -370 -386 0

